PointerNetwork/Ptr_Net_TSPTW/benchmark/n20w40/n20w40.002.txt.solution
1 11 16 18 5 17 7 19 15 14 8 2 6 20 12 9 3 10 13 21 4 
333
